words_hard_train/2697.qaiger
aag 135 16 0 1 119
2
4
12
14
28
30
54
56
124
126
130
134
138
142
146
236
271
6 3 5
8 2 4
10 7 9
16 13 15
18 12 14
20 17 19
22 10 21
24 8 20
26 25 19
32 29 31
34 28 30
36 33 35
38 26 37
40 27 36
42 39 41
44 22 43
46 9 21
48 47 25
50 49 43
52 50 11
58 55 57
60 54 56
62 59 61
64 41 35
66 63 64
68 62 65
70 67 69
72 53 70
74 52 71
76 73 75
78 44 76
80 65 61
82 81 59
84 78 83
86 83 74
88 69 61
90 88 37
92 89 36
94 91 93
96 87 94
98 86 95
100 97 99
102 84 100
104 93 35
106 104 21
108 105 20
110 107 109
112 99 110
114 98 111
116 113 115
118 103 117
120 102 116
122 119 121
128 125 127
132 128 131
136 132 135
140 136 139
144 140 143
148 145 146
150 144 147
152 149 151
154 122 152
156 85 87
158 82 75
160 158 79
162 156 161
164 137 138
166 165 141
168 163 167
170 85 101
172 171 103
174 141 142
176 175 145
178 173 177
180 169 179
182 162 166
184 45 77
186 185 79
188 187 134
190 189 137
192 48 42
194 193 51
196 10 124
198 196 130
200 199 48
202 197 131
204 201 203
206 205 127
208 195 207
210 204 126
212 209 211
214 213 133
216 186 135
218 214 217
220 190 219
222 183 221
224 180 223
226 155 225
228 172 176
230 226 229
232 123 153
234 231 233
238 234 236
240 109 19
242 241 10
244 240 11
246 243 245
248 121 115
250 247 249
252 246 248
254 251 253
256 150 255
258 238 257
260 151 254
262 261 239
264 259 263
266 235 237
268 266 257
270 265 269
i0 2 y2[0]
i1 2 y2[7]
i2 2 y2[1]
i3 2 y2[6]
i4 2 y2[2]
i5 2 y2[5]
i6 2 y2[3]
i7 2 y2[4]
i8 1 x1[0]
i9 1 x1[2]
i10 1 x1[1]
i11 1 x1[3]
i12 1 x1[4]
i13 1 x1[5]
i14 1 x1[6]
i15 1 x1[7]
o0 bv[0]
c
simplified
  <
    subtract
      1
      add
        reverse
          2 y2
        2 y2
    1 x1
