words_hard_train/2697.qaiger.qdimacs
p cnf 135 358
a 65 67 69 71 73 118 62 63 0
e 1 2 3 4 5 6 7 8 9 10 11 12 13 14 15 16 17 18 19 20 21 22 23 24 25 26 27 28 29 30 31 32 33 34 35 36 37 38 39 40 41 42 43 44 45 46 47 48 49 50 51 52 53 54 55 56 57 58 59 60 61 64 66 68 70 72 74 75 76 77 78 79 80 81 82 83 84 85 86 87 88 89 90 91 92 93 94 95 96 97 98 99 100 101 102 103 104 105 106 107 108 109 110 111 112 113 114 115 116 117 119 120 121 122 123 124 125 126 127 128 129 130 131 132 133 134 135 0
1 2 3 0
-1 -3 0
-2 -3 0
-1 -2 4 0
1 -4 0
2 -4 0
3 4 5 0
-3 -5 0
-4 -5 0
6 7 8 0
-6 -8 0
-7 -8 0
-6 -7 9 0
6 -9 0
7 -9 0
8 9 10 0
-8 -10 0
-9 -10 0
-5 10 11 0
5 -11 0
-10 -11 0
-4 -10 12 0
4 -12 0
10 -12 0
12 9 13 0
-12 -13 0
-9 -13 0
14 15 16 0
-14 -16 0
-15 -16 0
-14 -15 17 0
14 -17 0
15 -17 0
16 17 18 0
-16 -18 0
-17 -18 0
-13 18 19 0
13 -19 0
-18 -19 0
13 -18 20 0
-13 -20 0
18 -20 0
19 20 21 0
-19 -21 0
-20 -21 0
-11 21 22 0
11 -22 0
-21 -22 0
4 10 23 0
-4 -23 0
-10 -23 0
23 12 24 0
-23 -24 0
-12 -24 0
24 21 25 0
-24 -25 0
-21 -25 0
-25 5 26 0
25 -26 0
-5 -26 0
27 28 29 0
-27 -29 0
-28 -29 0
-27 -28 30 0
27 -30 0
28 -30 0
29 30 31 0
-29 -31 0
-30 -31 0
20 17 32 0
-20 -32 0
-17 -32 0
31 -32 33 0
-31 -33 0
32 -33 0
-31 32 34 0
31 -34 0
-32 -34 0
33 34 35 0
-33 -35 0
-34 -35 0
26 -35 36 0
-26 -36 0
35 -36 0
-26 35 37 0
26 -37 0
-35 -37 0
36 37 38 0
-36 -38 0
-37 -38 0
-22 -38 39 0
22 -39 0
38 -39 0
32 30 40 0
-32 -40 0
-30 -40 0
40 29 41 0
-40 -41 0
-29 -41 0
-39 41 42 0
39 -42 0
-41 -42 0
41 -37 43 0
-41 -43 0
37 -43 0
34 30 44 0
-34 -44 0
-30 -44 0
-44 18 45 0
44 -45 0
-18 -45 0
44 -18 46 0
-44 -46 0
18 -46 0
45 46 47 0
-45 -47 0
-46 -47 0
43 -47 48 0
-43 -48 0
47 -48 0
-43 47 49 0
43 -49 0
-47 -49 0
48 49 50 0
-48 -50 0
-49 -50 0
-42 -50 51 0
42 -51 0
50 -51 0
46 17 52 0
-46 -52 0
-17 -52 0
-52 10 53 0
52 -53 0
-10 -53 0
52 -10 54 0
-52 -54 0
10 -54 0
53 54 55 0
-53 -55 0
-54 -55 0
49 -55 56 0
-49 -56 0
55 -56 0
-49 55 57 0
49 -57 0
-55 -57 0
56 57 58 0
-56 -58 0
-57 -58 0
51 58 59 0
-51 -59 0
-58 -59 0
-51 -58 60 0
51 -60 0
58 -60 0
59 60 61 0
-59 -61 0
-60 -61 0
62 63 64 0
-62 -64 0
-63 -64 0
-64 65 66 0
64 -66 0
-65 -66 0
-66 67 68 0
66 -68 0
-67 -68 0
-68 69 70 0
68 -70 0
-69 -70 0
-70 71 72 0
70 -72 0
-71 -72 0
72 -73 74 0
-72 -74 0
73 -74 0
-72 73 75 0
72 -75 0
-73 -75 0
74 75 76 0
-74 -76 0
-75 -76 0
-61 -76 77 0
61 -77 0
76 -77 0
42 43 78 0
-42 -78 0
-43 -78 0
-41 37 79 0
41 -79 0
-37 -79 0
-79 39 80 0
79 -80 0
-39 -80 0
-78 80 81 0
78 -81 0
-80 -81 0
68 -69 82 0
-68 -82 0
69 -82 0
82 70 83 0
-82 -83 0
-70 -83 0
81 83 84 0
-81 -84 0
-83 -84 0
42 50 85 0
-42 -85 0
-50 -85 0
85 51 86 0
-85 -86 0
-51 -86 0
70 -71 87 0
-70 -87 0
71 -87 0
87 72 88 0
-87 -88 0
-72 -88 0
86 88 89 0
-86 -89 0
-88 -89 0
84 89 90 0
-84 -90 0
-89 -90 0
-81 -83 91 0
81 -91 0
83 -91 0
22 38 92 0
-22 -92 0
-38 -92 0
92 39 93 0
-92 -93 0
-39 -93 0
93 -67 94 0
-93 -94 0
67 -94 0
94 68 95 0
-94 -95 0
-68 -95 0
-24 -21 96 0
24 -96 0
21 -96 0
96 25 97 0
-96 -97 0
-25 -97 0
-5 -62 98 0
5 -98 0
62 -98 0
-98 -65 99 0
98 -99 0
65 -99 0
99 -24 100 0
-99 -100 0
24 -100 0
98 65 101 0
-98 -101 0
-65 -101 0
100 101 102 0
-100 -102 0
-101 -102 0
102 63 103 0
-102 -103 0
-63 -103 0
97 103 104 0
-97 -104 0
-103 -104 0
-102 -63 105 0
102 -105 0
63 -105 0
104 105 106 0
-104 -106 0
-105 -106 0
106 66 107 0
-106 -107 0
-66 -107 0
-93 67 108 0
93 -108 0
-67 -108 0
-107 108 109 0
107 -109 0
-108 -109 0
-95 109 110 0
95 -110 0
-109 -110 0
91 110 111 0
-91 -111 0
-110 -111 0
-90 111 112 0
90 -112 0
-111 -112 0
77 112 113 0
-77 -113 0
-112 -113 0
-86 -88 114 0
86 -114 0
88 -114 0
-113 114 115 0
113 -115 0
-114 -115 0
61 76 116 0
-61 -116 0
-76 -116 0
115 116 117 0
-115 -117 0
-116 -117 0
-117 -118 119 0
117 -119 0
118 -119 0
54 9 120 0
-54 -120 0
-9 -120 0
120 -5 121 0
-120 -121 0
5 -121 0
-120 5 122 0
120 -122 0
-5 -122 0
121 122 123 0
-121 -123 0
-122 -123 0
60 57 124 0
-60 -124 0
-57 -124 0
123 124 125 0
-123 -125 0
-124 -125 0
-123 -124 126 0
123 -126 0
124 -126 0
125 126 127 0
-125 -127 0
-126 -127 0
-75 127 128 0
75 -128 0
-127 -128 0
-119 128 129 0
119 -129 0
-128 -129 0
75 -127 130 0
-75 -130 0
127 -130 0
130 119 131 0
-130 -131 0
-119 -131 0
129 131 132 0
-129 -132 0
-131 -132 0
117 118 133 0
-117 -133 0
-118 -133 0
-133 128 134 0
133 -134 0
-128 -134 0
132 134 135 0
-132 -135 0
-134 -135 0
-135 0
